
===== New CPLEX run =====
Instance: /home/yorig/tuner/mpils-tests/instances/miplib/easy/lotsize.mps
Config: /scratch/yorig/mpils-results-grid-seconds-5-watchdog/easy/24proc/seed-5/4_lotsize_seed-5_20260504_011421/expansion/config_param_CPXPARAM_Read_Scale_-1_iter_5.prm
========================

Selected objective sense:  MINIMIZE
Selected objective  name:  R1921
Selected RHS        name:  B
Selected bound      name:  BOUND
Wall watchdog: enabled factor=1 grace=1 limit=6 seconds
Version identifier: 22.1.2.0 | 2024-11-26 | 0edbb82fd
CPXPARAM_Read_Scale                              -1
CPXPARAM_Threads                                 8
CPXPARAM_Parallel                                1
CPXPARAM_MIP_Cuts_Cliques                        2
CPXPARAM_Preprocessing_CoeffReduce               3
CPXPARAM_MIP_Cuts_Covers                         1
CPXPARAM_MIP_Strategy_SubAlgorithm               2
CPXPARAM_MIP_Cuts_FlowCovers                     2
CPXPARAM_MIP_Cuts_GUBCovers                      2
CPXPARAM_MIP_Limits_GomoryCand                   100
CPXPARAM_MIP_Cuts_PathCut                        2
CPXPARAM_MIP_Cuts_MIRCut                         2
CPXPARAM_MIP_Cuts_Disjunctive                    2
CPXPARAM_MIP_Limits_AggForCut                    10
CPXPARAM_Preprocessing_Symmetry                  2
CPXPARAM_Barrier_Ordering                        2
CPXPARAM_Preprocessing_Fill                      20
CPXPARAM_TimeLimit                               5
CPXPARAM_MIP_Limits_CutsFactor                   8
Tried aggregator 1 time.
MIP Presolve eliminated 595 rows and 0 columns.
MIP Presolve added 1190 rows and 0 columns.
MIP Presolve modified 10 coefficients.
Reduced MIP has 2515 rows, 2985 columns, and 7755 nonzeros.
Reduced MIP has 1195 binaries, 0 generals, 0 SOSs, and 0 indicators.
Presolve time = 0.00 sec. (4.57 ticks)
Probing fixed 0 vars, tightened 5487 bounds.
Probing time = 0.01 sec. (18.38 ticks)
Tried aggregator 2 times.
MIP Presolve modified 1206 coefficients.
Aggregator did 10 substitutions.
Reduced MIP has 2505 rows, 2975 columns, and 7735 nonzeros.
Reduced MIP has 1195 binaries, 0 generals, 0 SOSs, and 0 indicators.
Presolve time = 0.00 sec. (5.33 ticks)
Probing fixed 0 vars, tightened 2401 bounds.
Probing time = 0.00 sec. (6.41 ticks)
Clique table members: 190.
MIP emphasis: balance optimality and feasibility.
MIP search method: dynamic search.
Parallel mode: deterministic, using up to 8 threads.
Root relaxation solution time = 0.01 sec. (9.25 ticks)

        Nodes                                         Cuts/
   Node  Left     Objective  IInf  Best Integer    Best Bound    ItCnt     Gap

      0     0   348385.3466   472                 348385.3466      882         
      0     0   550454.9320   494                   Cuts: 726     1907         
      0     0   795150.9639   644                   Cuts: 726     2810         
*     0+    0                       1.14413e+07   795150.9639            93.05%
*     0+    0                      9125816.0000   795150.9639            91.29%
      0     0   973916.1931   686  9125816.0000     Cuts: 726     3573   89.33%
      0     0  1103496.3159   654  9125816.0000     Cuts: 726     4519   87.91%
*     0+    0                      2061047.0000  1103496.3159            46.46%
      0     0  1188244.0690   650  2061047.0000     Cuts: 726     5333   42.35%
Detecting symmetries...
*     0+    0                      1987839.0000  1188244.0690            40.22%
      0     0  1247030.1945   694  1987839.0000     Cuts: 726     6070   37.27%
*     0+    0                      1829936.0000  1247030.1945            31.85%
      0     0  1291773.4652   721  1829936.0000     Cuts: 726     6860   29.41%
      0     0  1325764.3241   747  1829936.0000     Cuts: 726     7835   27.55%
      0     0  1352656.0750   757  1829936.0000     Cuts: 726     8849   26.08%
      0     0  1371063.9225   768  1829936.0000     Cuts: 726     9935   25.08%
      0     0  1385558.6994   799  1829936.0000     Cuts: 726    11054   24.28%
      0     0  1397538.9491   812  1829936.0000     Cuts: 726    11716   23.63%
      0     0  1409282.4205   826  1829936.0000     Cuts: 726    12226   22.99%
*     0+    0                      1803378.0000  1409282.4205            21.85%
      0     0  1414122.8254   840  1803378.0000     Cuts: 726    13032   21.58%
      0     0  1421248.0207   842  1803378.0000     Cuts: 607    13806   21.19%
      0     0  1425144.8128   854  1803378.0000     Cuts: 726    14798   20.97%
      0     0  1428125.5927   839  1803378.0000     Cuts: 603    15299   20.81%
      0     0  1430354.6849   838  1803378.0000     Cuts: 455    15702   20.68%
      0     0  1432560.9309   854  1803378.0000     Cuts: 395    15972   20.56%
      0     0  1434326.2879   842  1803378.0000     Cuts: 316    16230   20.46%

GUB cover cuts applied:  0
Clique cuts applied:  0
Cover cuts applied:  10
Implied bound cuts applied:  26
Flow cuts applied:  766
Mixed integer rounding cuts applied:  1153
Flow path cuts applied:  19
Multi commodity flow cuts applied:  14
Gomory fractional cuts applied:  2
Disjunctive cuts applied:  0
Cone linearizations applied:  0

Root node processing (before b&c):
  Real time             =    5.01 sec. (7567.48 ticks)
Parallel b&c, 8 threads:
  Real time             =    0.00 sec. (0.00 ticks)
  Sync time (average)   =    0.00 sec.
  Wait time (average)   =    0.00 sec.
                          ------------
Total (root+branch&cut) =    5.01 sec. (7567.48 ticks)
Gap: 20.46%
Upper bound: 1.80338e+06
Lower bound: 1.43433e+06
Termination status: Normal
End of CPLEX run. Time: 5.0128 seconds

===== New CPLEX run =====
Instance: /home/yorig/tuner/mpils-tests/instances/miplib/easy/lotsize.mps
Config: /scratch/yorig/mpils-results-grid-seconds-5-watchdog/easy/24proc/seed-5/4_lotsize_seed-5_20260504_011421/expansion/config_param_CPXPARAM_Read_Scale_1_iter_5.prm
========================

Selected objective sense:  MINIMIZE
Selected objective  name:  R1921
Selected RHS        name:  B
Selected bound      name:  BOUND
Wall watchdog: enabled factor=1 grace=1 limit=6 seconds
Version identifier: 22.1.2.0 | 2024-11-26 | 0edbb82fd
CPXPARAM_Read_Scale                              1
CPXPARAM_Threads                                 8
CPXPARAM_Parallel                                1
CPXPARAM_MIP_Cuts_Cliques                        2
CPXPARAM_Preprocessing_CoeffReduce               3
CPXPARAM_MIP_Cuts_Covers                         1
CPXPARAM_MIP_Strategy_SubAlgorithm               2
CPXPARAM_MIP_Cuts_FlowCovers                     2
CPXPARAM_MIP_Cuts_GUBCovers                      2
CPXPARAM_MIP_Limits_GomoryCand                   100
CPXPARAM_MIP_Cuts_PathCut                        2
CPXPARAM_MIP_Cuts_MIRCut                         2
CPXPARAM_MIP_Cuts_Disjunctive                    2
CPXPARAM_MIP_Limits_AggForCut                    10
CPXPARAM_Preprocessing_Symmetry                  2
CPXPARAM_Barrier_Ordering                        2
CPXPARAM_Preprocessing_Fill                      20
CPXPARAM_TimeLimit                               5
CPXPARAM_MIP_Limits_CutsFactor                   8
Tried aggregator 1 time.
MIP Presolve eliminated 595 rows and 0 columns.
MIP Presolve added 1190 rows and 0 columns.
MIP Presolve modified 10 coefficients.
Reduced MIP has 2515 rows, 2985 columns, and 7755 nonzeros.
Reduced MIP has 1195 binaries, 0 generals, 0 SOSs, and 0 indicators.
Presolve time = 0.00 sec. (4.57 ticks)
Probing fixed 0 vars, tightened 5487 bounds.
Probing time = 0.01 sec. (18.38 ticks)
Tried aggregator 2 times.
MIP Presolve modified 1206 coefficients.
Aggregator did 10 substitutions.
Reduced MIP has 2505 rows, 2975 columns, and 7735 nonzeros.
Reduced MIP has 1195 binaries, 0 generals, 0 SOSs, and 0 indicators.
Presolve time = 0.00 sec. (5.33 ticks)
Probing fixed 0 vars, tightened 2401 bounds.
Probing time = 0.00 sec. (6.41 ticks)
Clique table members: 190.
MIP emphasis: balance optimality and feasibility.
MIP search method: dynamic search.
Parallel mode: deterministic, using up to 8 threads.
Root relaxation solution time = 0.01 sec. (10.56 ticks)

        Nodes                                         Cuts/
   Node  Left     Objective  IInf  Best Integer    Best Bound    ItCnt     Gap

      0     0   348385.3466   472                 348385.3466      878         
      0     0   550454.9320   494                   Cuts: 726     1767         
      0     0   792680.0347   641                   Cuts: 726     2652         
*     0+    0                       1.21137e+07   792680.0347            93.46%
*     0+    0                       1.01581e+07   792680.0347            92.20%
      0     0   964389.2793   684   1.01581e+07     Cuts: 726     3502   90.51%
      0     0  1087317.7417   669   1.01581e+07     Cuts: 726     4272   89.30%
      0     0  1169487.8307   666   1.01581e+07     Cuts: 726     4989   88.49%
Detecting symmetries...
*     0+    0                      2090342.0000  1169487.8307            44.05%
      0     0  1234041.0668   683  2090342.0000     Cuts: 726     5871   40.96%
*     0+    0                      2088584.0000  1234041.0668            40.91%
      0     0  1281122.3089   719  2088584.0000     Cuts: 726     6740   38.66%
      0     0  1319434.1107   736  2088584.0000     Cuts: 726     7671   36.83%
      0     0  1342486.1498   769  2088584.0000     Cuts: 726     8506   35.72%
      0     0  1364996.1205   767  2088584.0000     Cuts: 726     9388   34.64%
      0     0  1378675.3254   786  2088584.0000     Cuts: 726    10160   33.99%
      0     0  1393874.4528   791  2088584.0000     Cuts: 726    11069   33.26%
      0     0  1402172.2720   807  2088584.0000     Cuts: 726    11902   32.86%
      0     0  1411642.7910   826  2088584.0000     Cuts: 726    12894   32.41%
      0     0  1418587.2687   854  2088584.0000     Cuts: 726    13720   32.08%
      0     0  1422794.1144   840  2088584.0000     Cuts: 572    14415   31.88%
      0     0  1425762.2154   846  2088584.0000     Cuts: 503    14962   31.74%
*     0+    0                      2076739.0000  1425762.2154            31.35%
      0     0  1427216.2442   826  2076739.0000     Cuts: 354    15439   31.28%
      0     0  1428423.5480   855  2076739.0000     Cuts: 303    15750   31.22%
      0     0  1429862.3959   850  2076739.0000     Cuts: 395    16067   31.15%
      0     0  1431359.0657   832  2076739.0000     Cuts: 308    16383   31.08%
      0     0  1432676.1486   864  2076739.0000     Cuts: 274    16609   31.01%
      0     0  1433599.8689   843  2076739.0000     Cuts: 172    16797   30.97%
*     0+    0                      2000934.0000  1433599.8689            28.35%
      0     0  1433990.8650   849  2000934.0000     Cuts: 216    16949   28.33%
      0     0  1434359.3493   859  2000934.0000      Cuts: 94    17067   28.32%

GUB cover cuts applied:  0
Clique cuts applied:  0
Cover cuts applied:  10
Implied bound cuts applied:  24
Flow cuts applied:  609
Mixed integer rounding cuts applied:  975
Flow path cuts applied:  8
Multi commodity flow cuts applied:  13
Gomory fractional cuts applied:  4
Disjunctive cuts applied:  0
Cone linearizations applied:  0

Root node processing (before b&c):
  Real time             =    5.01 sec. (7773.89 ticks)
Parallel b&c, 8 threads:
  Real time             =    0.00 sec. (0.00 ticks)
  Sync time (average)   =    0.00 sec.
  Wait time (average)   =    0.00 sec.
                          ------------
Total (root+branch&cut) =    5.01 sec. (7773.89 ticks)
Gap: 28.32%
Upper bound: 2.00093e+06
Lower bound: 1.43436e+06
Termination status: Normal
End of CPLEX run. Time: 5.01009 seconds
